(set-logic QF_S)
(declare-fun var0 () String)
(declare-fun var1 () String)
(declare-fun var2 () String)
(declare-fun var3 () Int)
(declare-fun var4 () String)
(declare-fun var5 () Int)
(declare-fun var6 () Int)
(assert (str.contains var0 var1))
(assert (>= (str.indexof var2 "E.cZ" var3) (str.len var4)))
(assert (> 135 var5))
(assert (> (str.to.int (str.replace var1 var0 var4)) (str.indexof var0 var0 var6)))
(check-sat)